c 0.010361194610595703 (encode time in sec)
p cnf 78 1048
1 2 3 4 0
1 2 -3 4 0
1 -2 3 5 0
1 -2 -3 4 0
-1 2 3 5 0
-1 2 -3 4 0
-1 -2 3 5 0
-1 -2 -3 4 0
6 7 8 9 0
6 7 -8 9 0
6 -7 8 10 0
6 -7 -8 9 0
-6 7 8 10 0
-6 7 -8 9 0
-6 -7 8 10 0
-6 -7 -8 9 0
11 12 13 14 0
11 12 -13 14 0
11 -12 13 15 0
11 -12 -13 14 0
-11 12 13 15 0
-11 12 -13 14 0
-11 -12 13 15 0
-11 -12 -13 14 0
16 17 18 1 2 3 6 7 8 20 0
16 17 18 1 2 3 6 7 -8 20 0
16 17 18 1 2 3 6 -7 8 19 0
16 17 18 1 2 3 6 -7 -8 0
16 17 18 1 2 3 -6 7 8 22 0
16 17 18 1 2 3 -6 7 -8 0
16 17 18 1 2 3 -6 -7 8 0
16 17 18 1 2 3 -6 -7 -8 0
16 17 18 1 2 -3 6 7 8 20 0
16 17 18 1 2 -3 6 7 -8 21 0
16 17 18 1 2 -3 6 -7 8 24 0
16 17 18 1 2 -3 6 -7 -8 0
16 17 18 1 2 -3 -6 7 8 0
16 17 18 1 2 -3 -6 7 -8 0
16 17 18 1 2 -3 -6 -7 8 0
16 17 18 1 2 -3 -6 -7 -8 0
16 17 18 1 -2 3 6 7 8 20 0
16 17 18 1 -2 3 6 7 -8 25 0
16 17 18 1 -2 3 6 -7 8 26 0
16 17 18 1 -2 3 6 -7 -8 0
16 17 18 1 -2 3 -6 7 8 0
16 17 18 1 -2 3 -6 7 -8 0
16 17 18 1 -2 3 -6 -7 8 0
16 17 18 1 -2 3 -6 -7 -8 0
16 17 18 1 -2 -3 6 7 8 27 0
16 17 18 1 -2 -3 6 7 -8 28 0
16 17 18 1 -2 -3 6 -7 8 0
16 17 18 1 -2 -3 6 -7 -8 0
16 17 18 1 -2 -3 -6 7 8 0
16 17 18 1 -2 -3 -6 7 -8 0
16 17 18 1 -2 -3 -6 -7 8 0
16 17 18 1 -2 -3 -6 -7 -8 0
16 17 18 -1 2 3 6 7 8 44 0
16 17 18 -1 2 3 6 7 -8 26 0
16 17 18 -1 2 3 6 -7 8 0
16 17 18 -1 2 3 6 -7 -8 0
16 17 18 -1 2 3 -6 7 8 0
16 17 18 -1 2 3 -6 7 -8 0
16 17 18 -1 2 3 -6 -7 8 0
16 17 18 -1 2 3 -6 -7 -8 0
16 17 18 -1 2 -3 6 7 8 0
16 17 18 -1 2 -3 6 7 -8 26 0
16 17 18 -1 2 -3 6 -7 8 0
16 17 18 -1 2 -3 6 -7 -8 0
16 17 18 -1 2 -3 -6 7 8 0
16 17 18 -1 2 -3 -6 7 -8 0
16 17 18 -1 2 -3 -6 -7 8 0
16 17 18 -1 2 -3 -6 -7 -8 0
16 17 18 -1 -2 3 6 7 8 21 0
16 17 18 -1 -2 3 6 7 -8 0
16 17 18 -1 -2 3 6 -7 8 0
16 17 18 -1 -2 3 6 -7 -8 0
16 17 18 -1 -2 3 -6 7 8 0
16 17 18 -1 -2 3 -6 7 -8 0
16 17 18 -1 -2 3 -6 -7 8 0
16 17 18 -1 -2 3 -6 -7 -8 0
16 17 18 -1 -2 -3 6 7 8 0
16 17 18 -1 -2 -3 6 7 -8 0
16 17 18 -1 -2 -3 6 -7 8 0
16 17 18 -1 -2 -3 6 -7 -8 0
16 17 18 -1 -2 -3 -6 7 8 0
16 17 18 -1 -2 -3 -6 7 -8 0
16 17 18 -1 -2 -3 -6 -7 8 0
16 17 18 -1 -2 -3 -6 -7 -8 0
16 17 -18 1 2 3 6 7 8 0
16 17 -18 1 2 3 6 7 -8 0
16 17 -18 1 2 3 6 -7 8 28 0
16 17 -18 1 2 3 6 -7 -8 20 0
16 17 -18 1 2 3 -6 7 8 46 0
16 17 -18 1 2 3 -6 7 -8 37 0
16 17 -18 1 2 3 -6 -7 8 26 0
16 17 -18 1 2 3 -6 -7 -8 0
16 17 -18 1 2 -3 6 7 8 0
16 17 -18 1 2 -3 6 7 -8 35 0
16 17 -18 1 2 -3 6 -7 8 37 0
16 17 -18 1 2 -3 6 -7 -8 44 0
16 17 -18 1 2 -3 -6 7 8 0
16 17 -18 1 2 -3 -6 7 -8 0
16 17 -18 1 2 -3 -6 -7 8 0
16 17 -18 1 2 -3 -6 -7 -8 0
16 17 -18 1 -2 3 6 7 8 0
16 17 -18 1 -2 3 6 7 -8 35 0
16 17 -18 1 -2 3 6 -7 8 29 0
16 17 -18 1 -2 3 6 -7 -8 29 0
16 17 -18 1 -2 3 -6 7 8 0
16 17 -18 1 -2 3 -6 7 -8 0
16 17 -18 1 -2 3 -6 -7 8 0
16 17 -18 1 -2 3 -6 -7 -8 0
16 17 -18 1 -2 -3 6 7 8 27 0
16 17 -18 1 -2 -3 6 7 -8 27 0
16 17 -18 1 -2 -3 6 -7 8 44 0
16 17 -18 1 -2 -3 6 -7 -8 26 0
16 17 -18 1 -2 -3 -6 7 8 0
16 17 -18 1 -2 -3 -6 7 -8 0
16 17 -18 1 -2 -3 -6 -7 8 0
16 17 -18 1 -2 -3 -6 -7 -8 0
16 17 -18 -1 2 3 6 7 8 24 0
16 17 -18 -1 2 3 6 7 -8 28 0
16 17 -18 -1 2 3 6 -7 8 0
16 17 -18 -1 2 3 6 -7 -8 0
16 17 -18 -1 2 3 -6 7 8 0
16 17 -18 -1 2 3 -6 7 -8 0
16 17 -18 -1 2 3 -6 -7 8 0
16 17 -18 -1 2 3 -6 -7 -8 0
16 17 -18 -1 2 -3 6 7 8 35 0
16 17 -18 -1 2 -3 6 7 -8 26 0
16 17 -18 -1 2 -3 6 -7 8 34 0
16 17 -18 -1 2 -3 6 -7 -8 0
16 17 -18 -1 2 -3 -6 7 8 0
16 17 -18 -1 2 -3 -6 7 -8 0
16 17 -18 -1 2 -3 -6 -7 8 0
16 17 -18 -1 2 -3 -6 -7 -8 0
16 17 -18 -1 -2 3 6 7 8 21 0
16 17 -18 -1 -2 3 6 7 -8 0
16 17 -18 -1 -2 3 6 -7 8 0
16 17 -18 -1 -2 3 6 -7 -8 0
16 17 -18 -1 -2 3 -6 7 8 0
16 17 -18 -1 -2 3 -6 7 -8 0
16 17 -18 -1 -2 3 -6 -7 8 0
16 17 -18 -1 -2 3 -6 -7 -8 0
16 17 -18 -1 -2 -3 6 7 8 24 0
16 17 -18 -1 -2 -3 6 7 -8 0
16 17 -18 -1 -2 -3 6 -7 8 0
16 17 -18 -1 -2 -3 6 -7 -8 0
16 17 -18 -1 -2 -3 -6 7 8 0
16 17 -18 -1 -2 -3 -6 7 -8 0
16 17 -18 -1 -2 -3 -6 -7 8 0
16 17 -18 -1 -2 -3 -6 -7 -8 0
16 -17 18 1 2 3 6 7 8 0
16 -17 18 1 2 3 6 7 -8 0
16 -17 18 1 2 3 6 -7 8 0
16 -17 18 1 2 3 6 -7 -8 0
16 -17 18 1 2 3 -6 7 8 40 0
16 -17 18 1 2 3 -6 7 -8 44 0
16 -17 18 1 2 3 -6 -7 8 0
16 -17 18 1 2 3 -6 -7 -8 0
16 -17 18 1 2 -3 6 7 8 0
16 -17 18 1 2 -3 6 7 -8 0
16 -17 18 1 2 -3 6 -7 8 37 0
16 -17 18 1 2 -3 6 -7 -8 38 0
16 -17 18 1 2 -3 -6 7 8 27 0
16 -17 18 1 2 -3 -6 7 -8 0
16 -17 18 1 2 -3 -6 -7 8 0
16 -17 18 1 2 -3 -6 -7 -8 0
16 -17 18 1 -2 3 6 7 8 0
16 -17 18 1 -2 3 6 7 -8 34 0
16 -17 18 1 -2 3 6 -7 8 27 0
16 -17 18 1 -2 3 6 -7 -8 27 0
16 -17 18 1 -2 3 -6 7 8 27 0
16 -17 18 1 -2 3 -6 7 -8 0
16 -17 18 1 -2 3 -6 -7 8 0
16 -17 18 1 -2 3 -6 -7 -8 0
16 -17 18 1 -2 -3 6 7 8 0
16 -17 18 1 -2 -3 6 7 -8 28 0
16 -17 18 1 -2 -3 6 -7 8 44 0
16 -17 18 1 -2 -3 6 -7 -8 29 0
16 -17 18 1 -2 -3 -6 7 8 27 0
16 -17 18 1 -2 -3 -6 7 -8 32 0
16 -17 18 1 -2 -3 -6 -7 8 0
16 -17 18 1 -2 -3 -6 -7 -8 0
16 -17 18 -1 2 3 6 7 8 0
16 -17 18 -1 2 3 6 7 -8 30 0
16 -17 18 -1 2 3 6 -7 8 21 0
16 -17 18 -1 2 3 6 -7 -8 37 0
16 -17 18 -1 2 3 -6 7 8 0
16 -17 18 -1 2 3 -6 7 -8 0
16 -17 18 -1 2 3 -6 -7 8 0
16 -17 18 -1 2 3 -6 -7 -8 0
16 -17 18 -1 2 -3 6 7 8 21 0
16 -17 18 -1 2 -3 6 7 -8 27 0
16 -17 18 -1 2 -3 6 -7 8 34 0
16 -17 18 -1 2 -3 6 -7 -8 28 0
16 -17 18 -1 2 -3 -6 7 8 0
16 -17 18 -1 2 -3 -6 7 -8 0
16 -17 18 -1 2 -3 -6 -7 8 0
16 -17 18 -1 2 -3 -6 -7 -8 0
16 -17 18 -1 -2 3 6 7 8 21 0
16 -17 18 -1 -2 3 6 7 -8 37 0
16 -17 18 -1 -2 3 6 -7 8 0
16 -17 18 -1 -2 3 6 -7 -8 0
16 -17 18 -1 -2 3 -6 7 8 0
16 -17 18 -1 -2 3 -6 7 -8 0
16 -17 18 -1 -2 3 -6 -7 8 0
16 -17 18 -1 -2 3 -6 -7 -8 0
16 -17 18 -1 -2 -3 6 7 8 37 0
16 -17 18 -1 -2 -3 6 7 -8 0
16 -17 18 -1 -2 -3 6 -7 8 0
16 -17 18 -1 -2 -3 6 -7 -8 0
16 -17 18 -1 -2 -3 -6 7 8 0
16 -17 18 -1 -2 -3 -6 7 -8 0
16 -17 18 -1 -2 -3 -6 -7 8 0
16 -17 18 -1 -2 -3 -6 -7 -8 0
16 -17 -18 1 2 3 6 7 8 0
16 -17 -18 1 2 3 6 7 -8 0
16 -17 -18 1 2 3 6 -7 8 0
16 -17 -18 1 2 3 6 -7 -8 0
16 -17 -18 1 2 3 -6 7 8 22 0
16 -17 -18 1 2 3 -6 7 -8 37 0
16 -17 -18 1 2 3 -6 -7 8 26 0
16 -17 -18 1 2 3 -6 -7 -8 39 0
16 -17 -18 1 2 -3 6 7 8 0
16 -17 -18 1 2 -3 6 7 -8 0
16 -17 -18 1 2 -3 6 -7 8 0
16 -17 -18 1 2 -3 6 -7 -8 27 0
16 -17 -18 1 2 -3 -6 7 8 29 0
16 -17 -18 1 2 -3 -6 7 -8 40 0
16 -17 -18 1 2 -3 -6 -7 8 37 0
16 -17 -18 1 2 -3 -6 -7 -8 0
16 -17 -18 1 -2 3 6 7 8 0
16 -17 -18 1 -2 3 6 7 -8 0
16 -17 -18 1 -2 3 6 -7 8 0
16 -17 -18 1 -2 3 6 -7 -8 26 0
16 -17 -18 1 -2 3 -6 7 8 28 0
16 -17 -18 1 -2 3 -6 7 -8 0
16 -17 -18 1 -2 3 -6 -7 8 0
16 -17 -18 1 -2 3 -6 -7 -8 0
16 -17 -18 1 -2 -3 6 7 8 0
16 -17 -18 1 -2 -3 6 7 -8 0
16 -17 -18 1 -2 -3 6 -7 8 0
16 -17 -18 1 -2 -3 6 -7 -8 28 0
16 -17 -18 1 -2 -3 -6 7 8 28 0
16 -17 -18 1 -2 -3 -6 7 -8 36 0
16 -17 -18 1 -2 -3 -6 -7 8 0
16 -17 -18 1 -2 -3 -6 -7 -8 0
16 -17 -18 -1 2 3 6 7 8 0
16 -17 -18 -1 2 3 6 7 -8 0
16 -17 -18 -1 2 3 6 -7 8 21 0
16 -17 -18 -1 2 3 6 -7 -8 44 0
16 -17 -18 -1 2 3 -6 7 8 40 0
16 -17 -18 -1 2 3 -6 7 -8 28 0
16 -17 -18 -1 2 3 -6 -7 8 0
16 -17 -18 -1 2 3 -6 -7 -8 0
16 -17 -18 -1 2 -3 6 7 8 0
16 -17 -18 -1 2 -3 6 7 -8 28 0
16 -17 -18 -1 2 -3 6 -7 8 35 0
16 -17 -18 -1 2 -3 6 -7 -8 27 0
16 -17 -18 -1 2 -3 -6 7 8 38 0
16 -17 -18 -1 2 -3 -6 7 -8 0
16 -17 -18 -1 2 -3 -6 -7 8 0
16 -17 -18 -1 2 -3 -6 -7 -8 0
16 -17 -18 -1 -2 3 6 7 8 0
16 -17 -18 -1 -2 3 6 7 -8 44 0
16 -17 -18 -1 -2 3 6 -7 8 40 0
16 -17 -18 -1 -2 3 6 -7 -8 0
16 -17 -18 -1 -2 3 -6 7 8 0
16 -17 -18 -1 -2 3 -6 7 -8 0
16 -17 -18 -1 -2 3 -6 -7 8 0
16 -17 -18 -1 -2 3 -6 -7 -8 0
16 -17 -18 -1 -2 -3 6 7 8 37 0
16 -17 -18 -1 -2 -3 6 7 -8 27 0
16 -17 -18 -1 -2 -3 6 -7 8 28 0
16 -17 -18 -1 -2 -3 6 -7 -8 0
16 -17 -18 -1 -2 -3 -6 7 8 0
16 -17 -18 -1 -2 -3 -6 7 -8 0
16 -17 -18 -1 -2 -3 -6 -7 8 0
16 -17 -18 -1 -2 -3 -6 -7 -8 0
-16 17 18 1 2 3 6 7 8 0
-16 17 18 1 2 3 6 7 -8 0
-16 17 18 1 2 3 6 -7 8 0
-16 17 18 1 2 3 6 -7 -8 0
-16 17 18 1 2 3 -6 7 8 0
-16 17 18 1 2 3 -6 7 -8 37 0
-16 17 18 1 2 3 -6 -7 8 30 0
-16 17 18 1 2 3 -6 -7 -8 39 0
-16 17 18 1 2 -3 6 7 8 0
-16 17 18 1 2 -3 6 7 -8 0
-16 17 18 1 2 -3 6 -7 8 0
-16 17 18 1 2 -3 6 -7 -8 0
-16 17 18 1 2 -3 -6 7 8 26 0
-16 17 18 1 2 -3 -6 7 -8 22 0
-16 17 18 1 2 -3 -6 -7 8 44 0
-16 17 18 1 2 -3 -6 -7 -8 28 0
-16 17 18 1 -2 3 6 7 8 0
-16 17 18 1 -2 3 6 7 -8 0
-16 17 18 1 -2 3 6 -7 8 0
-16 17 18 1 -2 3 6 -7 -8 0
-16 17 18 1 -2 3 -6 7 8 28 0
-16 17 18 1 -2 3 -6 7 -8 41 0
-16 17 18 1 -2 3 -6 -7 8 44 0
-16 17 18 1 -2 3 -6 -7 -8 0
-16 17 18 1 -2 -3 6 7 8 0
-16 17 18 1 -2 -3 6 7 -8 0
-16 17 18 1 -2 -3 6 -7 8 37 0
-16 17 18 1 -2 -3 6 -7 -8 26 0
-16 17 18 1 -2 -3 -6 7 8 28 0
-16 17 18 1 -2 -3 -6 7 -8 43 0
-16 17 18 1 -2 -3 -6 -7 8 0
-16 17 18 1 -2 -3 -6 -7 -8 0
-16 17 18 -1 2 3 6 7 8 0
-16 17 18 -1 2 3 6 7 -8 0
-16 17 18 -1 2 3 6 -7 8 21 0
-16 17 18 -1 2 3 6 -7 -8 0
-16 17 18 -1 2 3 -6 7 8 22 0
-16 17 18 -1 2 3 -6 7 -8 0
-16 17 18 -1 2 3 -6 -7 8 0
-16 17 18 -1 2 3 -6 -7 -8 0
-16 17 18 -1 2 -3 6 7 8 0
-16 17 18 -1 2 -3 6 7 -8 0
-16 17 18 -1 2 -3 6 -7 8 34 0
-16 17 18 -1 2 -3 6 -7 -8 0
-16 17 18 -1 2 -3 -6 7 8 37 0
-16 17 18 -1 2 -3 -6 7 -8 35 0
-16 17 18 -1 2 -3 -6 -7 8 0
-16 17 18 -1 2 -3 -6 -7 -8 0
-16 17 18 -1 -2 3 6 7 8 0
-16 17 18 -1 -2 3 6 7 -8 44 0
-16 17 18 -1 -2 3 6 -7 8 46 0
-16 17 18 -1 -2 3 6 -7 -8 27 0
-16 17 18 -1 -2 3 -6 7 8 21 0
-16 17 18 -1 -2 3 -6 7 -8 0
-16 17 18 -1 -2 3 -6 -7 8 0
-16 17 18 -1 -2 3 -6 -7 -8 0
-16 17 18 -1 -2 -3 6 7 8 0
-16 17 18 -1 -2 -3 6 7 -8 28 0
-16 17 18 -1 -2 -3 6 -7 8 28 0
-16 17 18 -1 -2 -3 6 -7 -8 0
-16 17 18 -1 -2 -3 -6 7 8 0
-16 17 18 -1 -2 -3 -6 7 -8 0
-16 17 18 -1 -2 -3 -6 -7 8 0
-16 17 18 -1 -2 -3 -6 -7 -8 0
-16 17 -18 1 2 3 6 7 8 0
-16 17 -18 1 2 3 6 7 -8 0
-16 17 -18 1 2 3 6 -7 8 0
-16 17 -18 1 2 3 6 -7 -8 0
-16 17 -18 1 2 3 -6 7 8 0
-16 17 -18 1 2 3 -6 7 -8 0
-16 17 -18 1 2 3 -6 -7 8 26 0
-16 17 -18 1 2 3 -6 -7 -8 21 0
-16 17 -18 1 2 -3 6 7 8 0
-16 17 -18 1 2 -3 6 7 -8 0
-16 17 -18 1 2 -3 6 -7 8 0
-16 17 -18 1 2 -3 6 -7 -8 0
-16 17 -18 1 2 -3 -6 7 8 0
-16 17 -18 1 2 -3 -6 7 -8 31 0
-16 17 -18 1 2 -3 -6 -7 8 44 0
-16 17 -18 1 2 -3 -6 -7 -8 0
-16 17 -18 1 -2 3 6 7 8 0
-16 17 -18 1 -2 3 6 7 -8 0
-16 17 -18 1 -2 3 6 -7 8 0
-16 17 -18 1 -2 3 6 -7 -8 0
-16 17 -18 1 -2 3 -6 7 8 0
-16 17 -18 1 -2 3 -6 7 -8 39 0
-16 17 -18 1 -2 3 -6 -7 8 24 0
-16 17 -18 1 -2 3 -6 -7 -8 0
-16 17 -18 1 -2 -3 6 7 8 0
-16 17 -18 1 -2 -3 6 7 -8 0
-16 17 -18 1 -2 -3 6 -7 8 0
-16 17 -18 1 -2 -3 6 -7 -8 26 0
-16 17 -18 1 -2 -3 -6 7 8 0
-16 17 -18 1 -2 -3 -6 7 -8 43 0
-16 17 -18 1 -2 -3 -6 -7 8 44 0
-16 17 -18 1 -2 -3 -6 -7 -8 0
-16 17 -18 -1 2 3 6 7 8 0
-16 17 -18 -1 2 3 6 7 -8 0
-16 17 -18 -1 2 3 6 -7 8 0
-16 17 -18 -1 2 3 6 -7 -8 44 0
-16 17 -18 -1 2 3 -6 7 8 31 0
-16 17 -18 -1 2 3 -6 7 -8 19 0
-16 17 -18 -1 2 3 -6 -7 8 39 0
-16 17 -18 -1 2 3 -6 -7 -8 0
-16 17 -18 -1 2 -3 6 7 8 0
-16 17 -18 -1 2 -3 6 7 -8 0
-16 17 -18 -1 2 -3 6 -7 8 0
-16 17 -18 -1 2 -3 6 -7 -8 28 0
-16 17 -18 -1 2 -3 -6 7 8 27 0
-16 17 -18 -1 2 -3 -6 7 -8 0
-16 17 -18 -1 2 -3 -6 -7 8 39 0
-16 17 -18 -1 2 -3 -6 -7 -8 0
-16 17 -18 -1 -2 3 6 7 8 0
-16 17 -18 -1 -2 3 6 7 -8 0
-16 17 -18 -1 -2 3 6 -7 8 40 0
-16 17 -18 -1 -2 3 6 -7 -8 27 0
-16 17 -18 -1 -2 3 -6 7 8 21 0
-16 17 -18 -1 -2 3 -6 7 -8 39 0
-16 17 -18 -1 -2 3 -6 -7 8 0
-16 17 -18 -1 -2 3 -6 -7 -8 0
-16 17 -18 -1 -2 -3 6 7 8 0
-16 17 -18 -1 -2 -3 6 7 -8 26 0
-16 17 -18 -1 -2 -3 6 -7 8 28 0
-16 17 -18 -1 -2 -3 6 -7 -8 28 0
-16 17 -18 -1 -2 -3 -6 7 8 0
-16 17 -18 -1 -2 -3 -6 7 -8 0
-16 17 -18 -1 -2 -3 -6 -7 8 0
-16 17 -18 -1 -2 -3 -6 -7 -8 0
-16 -17 18 1 2 3 6 7 8 0
-16 -17 18 1 2 3 6 7 -8 0
-16 -17 18 1 2 3 6 -7 8 0
-16 -17 18 1 2 3 6 -7 -8 0
-16 -17 18 1 2 3 -6 7 8 0
-16 -17 18 1 2 3 -6 7 -8 0
-16 -17 18 1 2 3 -6 -7 8 0
-16 -17 18 1 2 3 -6 -7 -8 21 0
-16 -17 18 1 2 -3 6 7 8 0
-16 -17 18 1 2 -3 6 7 -8 0
-16 -17 18 1 2 -3 6 -7 8 0
-16 -17 18 1 2 -3 6 -7 -8 0
-16 -17 18 1 2 -3 -6 7 8 0
-16 -17 18 1 2 -3 -6 7 -8 0
-16 -17 18 1 2 -3 -6 -7 8 0
-16 -17 18 1 2 -3 -6 -7 -8 27 0
-16 -17 18 1 -2 3 6 7 8 0
-16 -17 18 1 -2 3 6 7 -8 0
-16 -17 18 1 -2 3 6 -7 8 0
-16 -17 18 1 -2 3 6 -7 -8 0
-16 -17 18 1 -2 3 -6 7 8 0
-16 -17 18 1 -2 3 -6 7 -8 0
-16 -17 18 1 -2 3 -6 -7 8 0
-16 -17 18 1 -2 3 -6 -7 -8 44 0
-16 -17 18 1 -2 -3 6 7 8 0
-16 -17 18 1 -2 -3 6 7 -8 0
-16 -17 18 1 -2 -3 6 -7 8 0
-16 -17 18 1 -2 -3 6 -7 -8 0
-16 -17 18 1 -2 -3 -6 7 8 0
-16 -17 18 1 -2 -3 -6 7 -8 0
-16 -17 18 1 -2 -3 -6 -7 8 24 0
-16 -17 18 1 -2 -3 -6 -7 -8 31 0
-16 -17 18 -1 2 3 6 7 8 0
-16 -17 18 -1 2 3 6 7 -8 0
-16 -17 18 -1 2 3 6 -7 8 0
-16 -17 18 -1 2 3 6 -7 -8 0
-16 -17 18 -1 2 3 -6 7 8 0
-16 -17 18 -1 2 3 -6 7 -8 0
-16 -17 18 -1 2 3 -6 -7 8 35 0
-16 -17 18 -1 2 3 -6 -7 -8 33 0
-16 -17 18 -1 2 -3 6 7 8 0
-16 -17 18 -1 2 -3 6 7 -8 0
-16 -17 18 -1 2 -3 6 -7 8 0
-16 -17 18 -1 2 -3 6 -7 -8 0
-16 -17 18 -1 2 -3 -6 7 8 38 0
-16 -17 18 -1 2 -3 -6 7 -8 21 0
-16 -17 18 -1 2 -3 -6 -7 8 27 0
-16 -17 18 -1 2 -3 -6 -7 -8 22 0
-16 -17 18 -1 -2 3 6 7 8 0
-16 -17 18 -1 -2 3 6 7 -8 0
-16 -17 18 -1 -2 3 6 -7 8 0
-16 -17 18 -1 -2 3 6 -7 -8 0
-16 -17 18 -1 -2 3 -6 7 8 21 0
-16 -17 18 -1 -2 3 -6 7 -8 35 0
-16 -17 18 -1 -2 3 -6 -7 8 24 0
-16 -17 18 -1 -2 3 -6 -7 -8 0
-16 -17 18 -1 -2 -3 6 7 8 0
-16 -17 18 -1 -2 -3 6 7 -8 0
-16 -17 18 -1 -2 -3 6 -7 8 28 0
-16 -17 18 -1 -2 -3 6 -7 -8 19 0
-16 -17 18 -1 -2 -3 -6 7 8 35 0
-16 -17 18 -1 -2 -3 -6 7 -8 41 0
-16 -17 18 -1 -2 -3 -6 -7 8 0
-16 -17 18 -1 -2 -3 -6 -7 -8 0
-16 -17 -18 1 2 3 6 7 8 0
-16 -17 -18 1 2 3 6 7 -8 0
-16 -17 -18 1 2 3 6 -7 8 0
-16 -17 -18 1 2 3 6 -7 -8 0
-16 -17 -18 1 2 3 -6 7 8 0
-16 -17 -18 1 2 3 -6 7 -8 0
-16 -17 -18 1 2 3 -6 -7 8 0
-16 -17 -18 1 2 3 -6 -7 -8 0
-16 -17 -18 1 2 -3 6 7 8 0
-16 -17 -18 1 2 -3 6 7 -8 0
-16 -17 -18 1 2 -3 6 -7 8 0
-16 -17 -18 1 2 -3 6 -7 -8 0
-16 -17 -18 1 2 -3 -6 7 8 0
-16 -17 -18 1 2 -3 -6 7 -8 0
-16 -17 -18 1 2 -3 -6 -7 8 0
-16 -17 -18 1 2 -3 -6 -7 -8 28 0
-16 -17 -18 1 -2 3 6 7 8 0
-16 -17 -18 1 -2 3 6 7 -8 0
-16 -17 -18 1 -2 3 6 -7 8 0
-16 -17 -18 1 -2 3 6 -7 -8 0
-16 -17 -18 1 -2 3 -6 7 8 0
-16 -17 -18 1 -2 3 -6 7 -8 0
-16 -17 -18 1 -2 3 -6 -7 8 0
-16 -17 -18 1 -2 3 -6 -7 -8 24 0
-16 -17 -18 1 -2 -3 6 7 8 0
-16 -17 -18 1 -2 -3 6 7 -8 0
-16 -17 -18 1 -2 -3 6 -7 8 0
-16 -17 -18 1 -2 -3 6 -7 -8 0
-16 -17 -18 1 -2 -3 -6 7 8 0
-16 -17 -18 1 -2 -3 -6 7 -8 0
-16 -17 -18 1 -2 -3 -6 -7 8 0
-16 -17 -18 1 -2 -3 -6 -7 -8 46 0
-16 -17 -18 -1 2 3 6 7 8 0
-16 -17 -18 -1 2 3 6 7 -8 0
-16 -17 -18 -1 2 3 6 -7 8 0
-16 -17 -18 -1 2 3 6 -7 -8 0
-16 -17 -18 -1 2 3 -6 7 8 0
-16 -17 -18 -1 2 3 -6 7 -8 0
-16 -17 -18 -1 2 3 -6 -7 8 39 0
-16 -17 -18 -1 2 3 -6 -7 -8 45 0
-16 -17 -18 -1 2 -3 6 7 8 0
-16 -17 -18 -1 2 -3 6 7 -8 0
-16 -17 -18 -1 2 -3 6 -7 8 0
-16 -17 -18 -1 2 -3 6 -7 -8 0
-16 -17 -18 -1 2 -3 -6 7 8 38 0
-16 -17 -18 -1 2 -3 -6 7 -8 0
-16 -17 -18 -1 2 -3 -6 -7 8 21 0
-16 -17 -18 -1 2 -3 -6 -7 -8 42 0
-16 -17 -18 -1 -2 3 6 7 8 0
-16 -17 -18 -1 -2 3 6 7 -8 0
-16 -17 -18 -1 -2 3 6 -7 8 0
-16 -17 -18 -1 -2 3 6 -7 -8 0
-16 -17 -18 -1 -2 3 -6 7 8 0
-16 -17 -18 -1 -2 3 -6 7 -8 39 0
-16 -17 -18 -1 -2 3 -6 -7 8 44 0
-16 -17 -18 -1 -2 3 -6 -7 -8 20 0
-16 -17 -18 -1 -2 -3 6 7 8 0
-16 -17 -18 -1 -2 -3 6 7 -8 26 0
-16 -17 -18 -1 -2 -3 6 -7 8 0
-16 -17 -18 -1 -2 -3 6 -7 -8 0
-16 -17 -18 -1 -2 -3 -6 7 8 21 0
-16 -17 -18 -1 -2 -3 -6 7 -8 39 0
-16 -17 -18 -1 -2 -3 -6 -7 8 20 0
-16 -17 -18 -1 -2 -3 -6 -7 -8 20 0
47 48 49 11 12 13 16 17 18 51 0
47 48 49 11 12 13 16 17 -18 50 0
47 48 49 11 12 13 16 -17 18 0
47 48 49 11 12 13 16 -17 -18 0
47 48 49 11 12 13 -16 17 18 0
47 48 49 11 12 13 -16 17 -18 0
47 48 49 11 12 13 -16 -17 18 0
47 48 49 11 12 13 -16 -17 -18 0
47 48 49 11 12 -13 16 17 18 51 0
47 48 49 11 12 -13 16 17 -18 53 0
47 48 49 11 12 -13 16 -17 18 0
47 48 49 11 12 -13 16 -17 -18 0
47 48 49 11 12 -13 -16 17 18 0
47 48 49 11 12 -13 -16 17 -18 0
47 48 49 11 12 -13 -16 -17 18 0
47 48 49 11 12 -13 -16 -17 -18 0
47 48 49 11 -12 13 16 17 18 51 0
47 48 49 11 -12 13 16 17 -18 0
47 48 49 11 -12 13 16 -17 18 0
47 48 49 11 -12 13 16 -17 -18 0
47 48 49 11 -12 13 -16 17 18 0
47 48 49 11 -12 13 -16 17 -18 0
47 48 49 11 -12 13 -16 -17 18 0
47 48 49 11 -12 13 -16 -17 -18 0
47 48 49 11 -12 -13 16 17 18 52 0
47 48 49 11 -12 -13 16 17 -18 0
47 48 49 11 -12 -13 16 -17 18 0
47 48 49 11 -12 -13 16 -17 -18 0
47 48 49 11 -12 -13 -16 17 18 0
47 48 49 11 -12 -13 -16 17 -18 0
47 48 49 11 -12 -13 -16 -17 18 0
47 48 49 11 -12 -13 -16 -17 -18 0
47 48 49 -11 12 13 16 17 18 51 0
47 48 49 -11 12 13 16 17 -18 0
47 48 49 -11 12 13 16 -17 18 0
47 48 49 -11 12 13 16 -17 -18 0
47 48 49 -11 12 13 -16 17 18 0
47 48 49 -11 12 13 -16 17 -18 0
47 48 49 -11 12 13 -16 -17 18 0
47 48 49 -11 12 13 -16 -17 -18 0
47 48 49 -11 12 -13 16 17 18 55 0
47 48 49 -11 12 -13 16 17 -18 0
47 48 49 -11 12 -13 16 -17 18 0
47 48 49 -11 12 -13 16 -17 -18 0
47 48 49 -11 12 -13 -16 17 18 0
47 48 49 -11 12 -13 -16 17 -18 0
47 48 49 -11 12 -13 -16 -17 18 0
47 48 49 -11 12 -13 -16 -17 -18 0
47 48 49 -11 -12 13 16 17 18 50 0
47 48 49 -11 -12 13 16 17 -18 0
47 48 49 -11 -12 13 16 -17 18 0
47 48 49 -11 -12 13 16 -17 -18 0
47 48 49 -11 -12 13 -16 17 18 0
47 48 49 -11 -12 13 -16 17 -18 0
47 48 49 -11 -12 13 -16 -17 18 0
47 48 49 -11 -12 13 -16 -17 -18 0
47 48 49 -11 -12 -13 16 17 18 56 0
47 48 49 -11 -12 -13 16 17 -18 0
47 48 49 -11 -12 -13 16 -17 18 0
47 48 49 -11 -12 -13 16 -17 -18 0
47 48 49 -11 -12 -13 -16 17 18 0
47 48 49 -11 -12 -13 -16 17 -18 0
47 48 49 -11 -12 -13 -16 -17 18 0
47 48 49 -11 -12 -13 -16 -17 -18 0
47 48 -49 11 12 13 16 17 18 0
47 48 -49 11 12 13 16 17 -18 57 0
47 48 -49 11 12 13 16 -17 18 58 0
47 48 -49 11 12 13 16 -17 -18 59 0
47 48 -49 11 12 13 -16 17 18 0
47 48 -49 11 12 13 -16 17 -18 0
47 48 -49 11 12 13 -16 -17 18 0
47 48 -49 11 12 13 -16 -17 -18 0
47 48 -49 11 12 -13 16 17 18 0
47 48 -49 11 12 -13 16 17 -18 58 0
47 48 -49 11 12 -13 16 -17 18 63 0
47 48 -49 11 12 -13 16 -17 -18 0
47 48 -49 11 12 -13 -16 17 18 0
47 48 -49 11 12 -13 -16 17 -18 0
47 48 -49 11 12 -13 -16 -17 18 0
47 48 -49 11 12 -13 -16 -17 -18 0
47 48 -49 11 -12 13 16 17 18 0
47 48 -49 11 -12 13 16 17 -18 51 0
47 48 -49 11 -12 13 16 -17 18 66 0
47 48 -49 11 -12 13 16 -17 -18 0
47 48 -49 11 -12 13 -16 17 18 0
47 48 -49 11 -12 13 -16 17 -18 0
47 48 -49 11 -12 13 -16 -17 18 0
47 48 -49 11 -12 13 -16 -17 -18 0
47 48 -49 11 -12 -13 16 17 18 65 0
47 48 -49 11 -12 -13 16 17 -18 51 0
47 48 -49 11 -12 -13 16 -17 18 0
47 48 -49 11 -12 -13 16 -17 -18 0
47 48 -49 11 -12 -13 -16 17 18 0
47 48 -49 11 -12 -13 -16 17 -18 0
47 48 -49 11 -12 -13 -16 -17 18 0
47 48 -49 11 -12 -13 -16 -17 -18 0
47 48 -49 -11 12 13 16 17 18 0
47 48 -49 -11 12 13 16 17 -18 51 0
47 48 -49 -11 12 13 16 -17 18 57 0
47 48 -49 -11 12 13 16 -17 -18 0
47 48 -49 -11 12 13 -16 17 18 0
47 48 -49 -11 12 13 -16 17 -18 0
47 48 -49 -11 12 13 -16 -17 18 0
47 48 -49 -11 12 13 -16 -17 -18 0
47 48 -49 -11 12 -13 16 17 18 71 0
47 48 -49 -11 12 -13 16 17 -18 56 0
47 48 -49 -11 12 -13 16 -17 18 0
47 48 -49 -11 12 -13 16 -17 -18 0
47 48 -49 -11 12 -13 -16 17 18 0
47 48 -49 -11 12 -13 -16 17 -18 0
47 48 -49 -11 12 -13 -16 -17 18 0
47 48 -49 -11 12 -13 -16 -17 -18 0
47 48 -49 -11 -12 13 16 17 18 57 0
47 48 -49 -11 -12 13 16 17 -18 64 0
47 48 -49 -11 -12 13 16 -17 18 0
47 48 -49 -11 -12 13 16 -17 -18 0
47 48 -49 -11 -12 13 -16 17 18 0
47 48 -49 -11 -12 13 -16 17 -18 0
47 48 -49 -11 -12 13 -16 -17 18 0
47 48 -49 -11 -12 13 -16 -17 -18 0
47 48 -49 -11 -12 -13 16 17 18 57 0
47 48 -49 -11 -12 -13 16 17 -18 0
47 48 -49 -11 -12 -13 16 -17 18 0
47 48 -49 -11 -12 -13 16 -17 -18 0
47 48 -49 -11 -12 -13 -16 17 18 0
47 48 -49 -11 -12 -13 -16 17 -18 0
47 48 -49 -11 -12 -13 -16 -17 18 0
47 48 -49 -11 -12 -13 -16 -17 -18 0
47 -48 49 11 12 13 16 17 18 0
47 -48 49 11 12 13 16 17 -18 0
47 -48 49 11 12 13 16 -17 18 53 0
47 -48 49 11 12 13 16 -17 -18 56 0
47 -48 49 11 12 13 -16 17 18 0
47 -48 49 11 12 13 -16 17 -18 0
47 -48 49 11 12 13 -16 -17 18 0
47 -48 49 11 12 13 -16 -17 -18 0
47 -48 49 11 12 -13 16 17 18 0
47 -48 49 11 12 -13 16 17 -18 0
47 -48 49 11 12 -13 16 -17 18 78 0
47 -48 49 11 12 -13 16 -17 -18 53 0
47 -48 49 11 12 -13 -16 17 18 65 0
47 -48 49 11 12 -13 -16 17 -18 0
47 -48 49 11 12 -13 -16 -17 18 0
47 -48 49 11 12 -13 -16 -17 -18 0
47 -48 49 11 -12 13 16 17 18 0
47 -48 49 11 -12 13 16 17 -18 0
47 -48 49 11 -12 13 16 -17 18 75 0
47 -48 49 11 -12 13 16 -17 -18 60 0
47 -48 49 11 -12 13 -16 17 18 0
47 -48 49 11 -12 13 -16 17 -18 0
47 -48 49 11 -12 13 -16 -17 18 0
47 -48 49 11 -12 13 -16 -17 -18 0
47 -48 49 11 -12 -13 16 17 18 0
47 -48 49 11 -12 -13 16 17 -18 0
47 -48 49 11 -12 -13 16 -17 18 61 0
47 -48 49 11 -12 -13 16 -17 -18 74 0
47 -48 49 11 -12 -13 -16 17 18 0
47 -48 49 11 -12 -13 -16 17 -18 0
47 -48 49 11 -12 -13 -16 -17 18 0
47 -48 49 11 -12 -13 -16 -17 -18 0
47 -48 49 -11 12 13 16 17 18 0
47 -48 49 -11 12 13 16 17 -18 0
47 -48 49 -11 12 13 16 -17 18 56 0
47 -48 49 -11 12 13 16 -17 -18 53 0
47 -48 49 -11 12 13 -16 17 18 0
47 -48 49 -11 12 13 -16 17 -18 0
47 -48 49 -11 12 13 -16 -17 18 0
47 -48 49 -11 12 13 -16 -17 -18 0
47 -48 49 -11 12 -13 16 17 18 0
47 -48 49 -11 12 -13 16 17 -18 59 0
47 -48 49 -11 12 -13 16 -17 18 0
47 -48 49 -11 12 -13 16 -17 -18 0
47 -48 49 -11 12 -13 -16 17 18 0
47 -48 49 -11 12 -13 -16 17 -18 0
47 -48 49 -11 12 -13 -16 -17 18 0
47 -48 49 -11 12 -13 -16 -17 -18 0
47 -48 49 -11 -12 13 16 17 18 0
47 -48 49 -11 -12 13 16 17 -18 53 0
47 -48 49 -11 -12 13 16 -17 18 74 0
47 -48 49 -11 -12 13 16 -17 -18 0
47 -48 49 -11 -12 13 -16 17 18 0
47 -48 49 -11 -12 13 -16 17 -18 0
47 -48 49 -11 -12 13 -16 -17 18 0
47 -48 49 -11 -12 13 -16 -17 -18 0
47 -48 49 -11 -12 -13 16 17 18 62 0
47 -48 49 -11 -12 -13 16 17 -18 67 0
47 -48 49 -11 -12 -13 16 -17 18 0
47 -48 49 -11 -12 -13 16 -17 -18 0
47 -48 49 -11 -12 -13 -16 17 18 0
47 -48 49 -11 -12 -13 -16 17 -18 0
47 -48 49 -11 -12 -13 -16 -17 18 0
47 -48 49 -11 -12 -13 -16 -17 -18 0
47 -48 -49 11 12 13 16 17 18 0
47 -48 -49 11 12 13 16 17 -18 0
47 -48 -49 11 12 13 16 -17 18 0
47 -48 -49 11 12 13 16 -17 -18 0
47 -48 -49 11 12 13 -16 17 18 51 0
47 -48 -49 11 12 13 -16 17 -18 60 0
47 -48 -49 11 12 13 -16 -17 18 0
47 -48 -49 11 12 13 -16 -17 -18 0
47 -48 -49 11 12 -13 16 17 18 0
47 -48 -49 11 12 -13 16 17 -18 0
47 -48 -49 11 12 -13 16 -17 18 0
47 -48 -49 11 12 -13 16 -17 -18 58 0
47 -48 -49 11 12 -13 -16 17 18 78 0
47 -48 -49 11 12 -13 -16 17 -18 69 0
47 -48 -49 11 12 -13 -16 -17 18 0
47 -48 -49 11 12 -13 -16 -17 -18 0
47 -48 -49 11 -12 13 16 17 18 0
47 -48 -49 11 -12 13 16 17 -18 0
47 -48 -49 11 -12 13 16 -17 18 0
47 -48 -49 11 -12 13 16 -17 -18 60 0
47 -48 -49 11 -12 13 -16 17 18 74 0
47 -48 -49 11 -12 13 -16 17 -18 0
47 -48 -49 11 -12 13 -16 -17 18 0
47 -48 -49 11 -12 13 -16 -17 -18 0
47 -48 -49 11 -12 -13 16 17 18 0
47 -48 -49 11 -12 -13 16 17 -18 0
47 -48 -49 11 -12 -13 16 -17 18 62 0
47 -48 -49 11 -12 -13 16 -17 -18 67 0
47 -48 -49 11 -12 -13 -16 17 18 62 0
47 -48 -49 11 -12 -13 -16 17 -18 0
47 -48 -49 11 -12 -13 -16 -17 18 0
47 -48 -49 11 -12 -13 -16 -17 -18 0
47 -48 -49 -11 12 13 16 17 18 0
47 -48 -49 -11 12 13 16 17 -18 0
47 -48 -49 -11 12 13 16 -17 18 62 0
47 -48 -49 -11 12 13 16 -17 -18 64 0
47 -48 -49 -11 12 13 -16 17 18 0
47 -48 -49 -11 12 13 -16 17 -18 0
47 -48 -49 -11 12 13 -16 -17 18 0
47 -48 -49 -11 12 13 -16 -17 -18 0
47 -48 -49 -11 12 -13 16 17 18 0
47 -48 -49 -11 12 -13 16 17 -18 0
47 -48 -49 -11 12 -13 16 -17 18 51 0
47 -48 -49 -11 12 -13 16 -17 -18 60 0
47 -48 -49 -11 12 -13 -16 17 18 0
47 -48 -49 -11 12 -13 -16 17 -18 0
47 -48 -49 -11 12 -13 -16 -17 18 0
47 -48 -49 -11 12 -13 -16 -17 -18 0
47 -48 -49 -11 -12 13 16 17 18 0
47 -48 -49 -11 -12 13 16 17 -18 53 0
47 -48 -49 -11 -12 13 16 -17 18 67 0
47 -48 -49 -11 -12 13 16 -17 -18 60 0
47 -48 -49 -11 -12 13 -16 17 18 0
47 -48 -49 -11 -12 13 -16 17 -18 0
47 -48 -49 -11 -12 13 -16 -17 18 0
47 -48 -49 -11 -12 13 -16 -17 -18 0
47 -48 -49 -11 -12 -13 16 17 18 0
47 -48 -49 -11 -12 -13 16 17 -18 74 0
47 -48 -49 -11 -12 -13 16 -17 18 51 0
47 -48 -49 -11 -12 -13 16 -17 -18 0
47 -48 -49 -11 -12 -13 -16 17 18 0
47 -48 -49 -11 -12 -13 -16 17 -18 0
47 -48 -49 -11 -12 -13 -16 -17 18 0
47 -48 -49 -11 -12 -13 -16 -17 -18 0
-47 48 49 11 12 13 16 17 18 0
-47 48 49 11 12 13 16 17 -18 0
-47 48 49 11 12 13 16 -17 18 0
-47 48 49 11 12 13 16 -17 -18 0
-47 48 49 11 12 13 -16 17 18 0
-47 48 49 11 12 13 -16 17 -18 60 0
-47 48 49 11 12 13 -16 -17 18 0
-47 48 49 11 12 13 -16 -17 -18 0
-47 48 49 11 12 -13 16 17 18 0
-47 48 49 11 12 -13 16 17 -18 0
-47 48 49 11 12 -13 16 -17 18 0
-47 48 49 11 12 -13 16 -17 -18 0
-47 48 49 11 12 -13 -16 17 18 78 0
-47 48 49 11 12 -13 -16 17 -18 73 0
-47 48 49 11 12 -13 -16 -17 18 0
-47 48 49 11 12 -13 -16 -17 -18 0
-47 48 49 11 -12 13 16 17 18 0
-47 48 49 11 -12 13 16 17 -18 0
-47 48 49 11 -12 13 16 -17 18 0
-47 48 49 11 -12 13 16 -17 -18 0
-47 48 49 11 -12 13 -16 17 18 67 0
-47 48 49 11 -12 13 -16 17 -18 60 0
-47 48 49 11 -12 13 -16 -17 18 0
-47 48 49 11 -12 13 -16 -17 -18 0
-47 48 49 11 -12 -13 16 17 18 0
-47 48 49 11 -12 -13 16 17 -18 0
-47 48 49 11 -12 -13 16 -17 18 0
-47 48 49 11 -12 -13 16 -17 -18 0
-47 48 49 11 -12 -13 -16 17 18 61 0
-47 48 49 11 -12 -13 -16 17 -18 53 0
-47 48 49 11 -12 -13 -16 -17 18 0
-47 48 49 11 -12 -13 -16 -17 -18 0
-47 48 49 -11 12 13 16 17 18 0
-47 48 49 -11 12 13 16 17 -18 0
-47 48 49 -11 12 13 16 -17 18 0
-47 48 49 -11 12 13 16 -17 -18 53 0
-47 48 49 -11 12 13 -16 17 18 76 0
-47 48 49 -11 12 13 -16 17 -18 0
-47 48 49 -11 12 13 -16 -17 18 0
-47 48 49 -11 12 13 -16 -17 -18 0
-47 48 49 -11 12 -13 16 17 18 0
-47 48 49 -11 12 -13 16 17 -18 0
-47 48 49 -11 12 -13 16 -17 18 0
-47 48 49 -11 12 -13 16 -17 -18 60 0
-47 48 49 -11 12 -13 -16 17 18 59 0
-47 48 49 -11 12 -13 -16 17 -18 0
-47 48 49 -11 12 -13 -16 -17 18 0
-47 48 49 -11 12 -13 -16 -17 -18 0
-47 48 49 -11 -12 13 16 17 18 0
-47 48 49 -11 -12 13 16 17 -18 0
-47 48 49 -11 -12 13 16 -17 18 0
-47 48 49 -11 -12 13 16 -17 -18 60 0
-47 48 49 -11 -12 13 -16 17 18 70 0
-47 48 49 -11 -12 13 -16 17 -18 0
-47 48 49 -11 -12 13 -16 -17 18 0
-47 48 49 -11 -12 13 -16 -17 -18 0
-47 48 49 -11 -12 -13 16 17 18 0
-47 48 49 -11 -12 -13 16 17 -18 0
-47 48 49 -11 -12 -13 16 -17 18 0
-47 48 49 -11 -12 -13 16 -17 -18 56 0
-47 48 49 -11 -12 -13 -16 17 18 0
-47 48 49 -11 -12 -13 -16 17 -18 0
-47 48 49 -11 -12 -13 -16 -17 18 0
-47 48 49 -11 -12 -13 -16 -17 -18 0
-47 48 -49 11 12 13 16 17 18 0
-47 48 -49 11 12 13 16 17 -18 0
-47 48 -49 11 12 13 16 -17 18 0
-47 48 -49 11 12 13 16 -17 -18 0
-47 48 -49 11 12 13 -16 17 18 0
-47 48 -49 11 12 13 -16 17 -18 0
-47 48 -49 11 12 13 -16 -17 18 51 0
-47 48 -49 11 12 13 -16 -17 -18 0
-47 48 -49 11 12 -13 16 17 18 0
-47 48 -49 11 12 -13 16 17 -18 0
-47 48 -49 11 12 -13 16 -17 18 0
-47 48 -49 11 12 -13 16 -17 -18 0
-47 48 -49 11 12 -13 -16 17 18 0
-47 48 -49 11 12 -13 -16 17 -18 64 0
-47 48 -49 11 12 -13 -16 -17 18 77 0
-47 48 -49 11 12 -13 -16 -17 -18 0
-47 48 -49 11 -12 13 16 17 18 0
-47 48 -49 11 -12 13 16 17 -18 0
-47 48 -49 11 -12 13 16 -17 18 0
-47 48 -49 11 -12 13 16 -17 -18 0
-47 48 -49 11 -12 13 -16 17 18 0
-47 48 -49 11 -12 13 -16 17 -18 60 0
-47 48 -49 11 -12 13 -16 -17 18 67 0
-47 48 -49 11 -12 13 -16 -17 -18 0
-47 48 -49 11 -12 -13 16 17 18 0
-47 48 -49 11 -12 -13 16 17 -18 0
-47 48 -49 11 -12 -13 16 -17 18 0
-47 48 -49 11 -12 -13 16 -17 -18 0
-47 48 -49 11 -12 -13 -16 17 18 0
-47 48 -49 11 -12 -13 -16 17 -18 77 0
-47 48 -49 11 -12 -13 -16 -17 18 62 0
-47 48 -49 11 -12 -13 -16 -17 -18 0
-47 48 -49 -11 12 13 16 17 18 0
-47 48 -49 -11 12 13 16 17 -18 0
-47 48 -49 -11 12 13 16 -17 18 0
-47 48 -49 -11 12 13 16 -17 -18 0
-47 48 -49 -11 12 13 -16 17 18 70 0
-47 48 -49 -11 12 13 -16 17 -18 72 0
-47 48 -49 -11 12 13 -16 -17 18 53 0
-47 48 -49 -11 12 13 -16 -17 -18 0
-47 48 -49 -11 12 -13 16 17 18 0
-47 48 -49 -11 12 -13 16 17 -18 0
-47 48 -49 -11 12 -13 16 -17 18 0
-47 48 -49 -11 12 -13 16 -17 -18 0
-47 48 -49 -11 12 -13 -16 17 18 56 0
-47 48 -49 -11 12 -13 -16 17 -18 50 0
-47 48 -49 -11 12 -13 -16 -17 18 0
-47 48 -49 -11 12 -13 -16 -17 -18 0
-47 48 -49 -11 -12 13 16 17 18 0
-47 48 -49 -11 -12 13 16 17 -18 0
-47 48 -49 -11 -12 13 16 -17 18 0
-47 48 -49 -11 -12 13 16 -17 -18 0
-47 48 -49 -11 -12 13 -16 17 18 76 0
-47 48 -49 -11 -12 13 -16 17 -18 67 0
-47 48 -49 -11 -12 13 -16 -17 18 0
-47 48 -49 -11 -12 13 -16 -17 -18 0
-47 48 -49 -11 -12 -13 16 17 18 0
-47 48 -49 -11 -12 -13 16 17 -18 0
-47 48 -49 -11 -12 -13 16 -17 18 0
-47 48 -49 -11 -12 -13 16 -17 -18 59 0
-47 48 -49 -11 -12 -13 -16 17 18 74 0
-47 48 -49 -11 -12 -13 -16 17 -18 74 0
-47 48 -49 -11 -12 -13 -16 -17 18 0
-47 48 -49 -11 -12 -13 -16 -17 -18 0
-47 -48 49 11 12 13 16 17 18 0
-47 -48 49 11 12 13 16 17 -18 0
-47 -48 49 11 12 13 16 -17 18 0
-47 -48 49 11 12 13 16 -17 -18 0
-47 -48 49 11 12 13 -16 17 18 0
-47 -48 49 11 12 13 -16 17 -18 0
-47 -48 49 11 12 13 -16 -17 18 0
-47 -48 49 11 12 13 -16 -17 -18 67 0
-47 -48 49 11 12 -13 16 17 18 0
-47 -48 49 11 12 -13 16 17 -18 0
-47 -48 49 11 12 -13 16 -17 18 0
-47 -48 49 11 12 -13 16 -17 -18 0
-47 -48 49 11 12 -13 -16 17 18 0
-47 -48 49 11 12 -13 -16 17 -18 0
-47 -48 49 11 12 -13 -16 -17 18 64 0
-47 -48 49 11 12 -13 -16 -17 -18 74 0
-47 -48 49 11 -12 13 16 17 18 0
-47 -48 49 11 -12 13 16 17 -18 0
-47 -48 49 11 -12 13 16 -17 18 0
-47 -48 49 11 -12 13 16 -17 -18 0
-47 -48 49 11 -12 13 -16 17 18 0
-47 -48 49 11 -12 13 -16 17 -18 0
-47 -48 49 11 -12 13 -16 -17 18 74 0
-47 -48 49 11 -12 13 -16 -17 -18 60 0
-47 -48 49 11 -12 -13 16 17 18 0
-47 -48 49 11 -12 -13 16 17 -18 0
-47 -48 49 11 -12 -13 16 -17 18 0
-47 -48 49 11 -12 -13 16 -17 -18 0
-47 -48 49 11 -12 -13 -16 17 18 0
-47 -48 49 11 -12 -13 -16 17 -18 77 0
-47 -48 49 11 -12 -13 -16 -17 18 61 0
-47 -48 49 11 -12 -13 -16 -17 -18 0
-47 -48 49 -11 12 13 16 17 18 0
-47 -48 49 -11 12 13 16 17 -18 0
-47 -48 49 -11 12 13 16 -17 18 0
-47 -48 49 -11 12 13 16 -17 -18 0
-47 -48 49 -11 12 13 -16 17 18 0
-47 -48 49 -11 12 13 -16 17 -18 68 0
-47 -48 49 -11 12 13 -16 -17 18 64 0
-47 -48 49 -11 12 13 -16 -17 -18 0
-47 -48 49 -11 12 -13 16 17 18 0
-47 -48 49 -11 12 -13 16 17 -18 0
-47 -48 49 -11 12 -13 16 -17 18 0
-47 -48 49 -11 12 -13 16 -17 -18 0
-47 -48 49 -11 12 -13 -16 17 18 0
-47 -48 49 -11 12 -13 -16 17 -18 57 0
-47 -48 49 -11 12 -13 -16 -17 18 50 0
-47 -48 49 -11 12 -13 -16 -17 -18 0
-47 -48 49 -11 -12 13 16 17 18 0
-47 -48 49 -11 -12 13 16 17 -18 0
-47 -48 49 -11 -12 13 16 -17 18 0
-47 -48 49 -11 -12 13 16 -17 -18 0
-47 -48 49 -11 -12 13 -16 17 18 0
-47 -48 49 -11 -12 13 -16 17 -18 74 0
-47 -48 49 -11 -12 13 -16 -17 18 55 0
-47 -48 49 -11 -12 13 -16 -17 -18 0
-47 -48 49 -11 -12 -13 16 17 18 0
-47 -48 49 -11 -12 -13 16 17 -18 0
-47 -48 49 -11 -12 -13 16 -17 18 0
-47 -48 49 -11 -12 -13 16 -17 -18 0
-47 -48 49 -11 -12 -13 -16 17 18 67 0
-47 -48 49 -11 -12 -13 -16 17 -18 67 0
-47 -48 49 -11 -12 -13 -16 -17 18 57 0
-47 -48 49 -11 -12 -13 -16 -17 -18 0
-47 -48 -49 11 12 13 16 17 18 0
-47 -48 -49 11 12 13 16 17 -18 0
-47 -48 -49 11 12 13 16 -17 18 0
-47 -48 -49 11 12 13 16 -17 -18 0
-47 -48 -49 11 12 13 -16 17 18 0
-47 -48 -49 11 12 13 -16 17 -18 0
-47 -48 -49 11 12 13 -16 -17 18 0
-47 -48 -49 11 12 13 -16 -17 -18 74 0
-47 -48 -49 11 12 -13 16 17 18 0
-47 -48 -49 11 12 -13 16 17 -18 0
-47 -48 -49 11 12 -13 16 -17 18 0
-47 -48 -49 11 12 -13 16 -17 -18 0
-47 -48 -49 11 12 -13 -16 17 18 0
-47 -48 -49 11 12 -13 -16 17 -18 0
-47 -48 -49 11 12 -13 -16 -17 18 0
-47 -48 -49 11 12 -13 -16 -17 -18 67 0
-47 -48 -49 11 -12 13 16 17 18 0
-47 -48 -49 11 -12 13 16 17 -18 0
-47 -48 -49 11 -12 13 16 -17 18 0
-47 -48 -49 11 -12 13 16 -17 -18 0
-47 -48 -49 11 -12 13 -16 17 18 0
-47 -48 -49 11 -12 13 -16 17 -18 0
-47 -48 -49 11 -12 13 -16 -17 18 0
-47 -48 -49 11 -12 13 -16 -17 -18 60 0
-47 -48 -49 11 -12 -13 16 17 18 0
-47 -48 -49 11 -12 -13 16 17 -18 0
-47 -48 -49 11 -12 -13 16 -17 18 0
-47 -48 -49 11 -12 -13 16 -17 -18 0
-47 -48 -49 11 -12 -13 -16 17 18 0
-47 -48 -49 11 -12 -13 -16 17 -18 0
-47 -48 -49 11 -12 -13 -16 -17 18 0
-47 -48 -49 11 -12 -13 -16 -17 -18 51 0
-47 -48 -49 -11 12 13 16 17 18 0
-47 -48 -49 -11 12 13 16 17 -18 0
-47 -48 -49 -11 12 13 16 -17 18 0
-47 -48 -49 -11 12 13 16 -17 -18 0
-47 -48 -49 -11 12 13 -16 17 18 0
-47 -48 -49 -11 12 13 -16 17 -18 0
-47 -48 -49 -11 12 13 -16 -17 18 53 0
-47 -48 -49 -11 12 13 -16 -17 -18 51 0
-47 -48 -49 -11 12 -13 16 17 18 0
-47 -48 -49 -11 12 -13 16 17 -18 0
-47 -48 -49 -11 12 -13 16 -17 18 0
-47 -48 -49 -11 12 -13 16 -17 -18 0
-47 -48 -49 -11 12 -13 -16 17 18 0
-47 -48 -49 -11 12 -13 -16 17 -18 0
-47 -48 -49 -11 12 -13 -16 -17 18 57 0
-47 -48 -49 -11 12 -13 -16 -17 -18 51 0
-47 -48 -49 -11 -12 13 16 17 18 0
-47 -48 -49 -11 -12 13 16 17 -18 0
-47 -48 -49 -11 -12 13 16 -17 18 0
-47 -48 -49 -11 -12 13 16 -17 -18 0
-47 -48 -49 -11 -12 13 -16 17 18 0
-47 -48 -49 -11 -12 13 -16 17 -18 0
-47 -48 -49 -11 -12 13 -16 -17 18 71 0
-47 -48 -49 -11 -12 13 -16 -17 -18 51 0
-47 -48 -49 -11 -12 -13 16 17 18 0
-47 -48 -49 -11 -12 -13 16 17 -18 0
-47 -48 -49 -11 -12 -13 16 -17 18 0
-47 -48 -49 -11 -12 -13 16 -17 -18 0
-47 -48 -49 -11 -12 -13 -16 17 18 0
-47 -48 -49 -11 -12 -13 -16 17 -18 0
-47 -48 -49 -11 -12 -13 -16 -17 18 50 0
-47 -48 -49 -11 -12 -13 -16 -17 -18 51 0
